Optimal - objective value -51.10000000
      4 squad[5]                                   1                       0
     15 squad[16]                                  1                       0
     16 squad[17]                                  1                       0
    142 squad[105]                                 1                       0
    173 squad[137]                                 1                       0
    222 squad[224]                                 1                       0
    285 squad[287]                                 1                       0
    370 squad[370]                                 1                       0
    371 squad[371]                                 1                       0
    384 squad[384]                                 1                       0
    404 squad[403]                                 1                       0
    431 squad[430]                                 1                       0
    487 squad[485]                                 1                       0
    499 squad[498]                                 1                       0
    600 squad[599]                                 1                       0
    665 lineup[5]                                  1                    -4.5
    676 lineup[16]                                 1                    -3.5
    677 lineup[17]                                 1                    -3.1
    883 lineup[224]                                1                    -4.5
    946 lineup[287]                                1                    -4.5
   1031 lineup[370]                                1                      -5
   1032 lineup[371]                                1                      -5
   1045 lineup[384]                                1                    -3.5
   1065 lineup[403]                                1                    -4.5
   1092 lineup[430]                                1                    -4.5
   1148 lineup[485]                                1                      -3
   1692 captain[370]                               1                      -5
   2354 vicecap[371]                               1                    -0.5
